c File: flat50_3_0.col
c
c SOURCE: Joseph Culberson (joe@cs.ualberta.ca)
c DESCRIPTION: Quasi-random coloring problem
c              generated with flatness = 0
c                             probability = 0.139
c                             known coloring = 3
c                             random seed = 1575
c              Creation Date:  Tue Jun  9 12:12:39 1998
c Maximum degree = 8 Minimum degree = 1
c p edge 50 115
c cnf created by edge2cnf
p cnf 150 545
-1 -2 0
-1 -3 0
-2 -3 0
1 2 3 0
-4 -5 0
-4 -6 0
-5 -6 0
4 5 6 0
-7 -8 0
-7 -9 0
-8 -9 0
7 8 9 0
-10 -11 0
-10 -12 0
-11 -12 0
10 11 12 0
-13 -14 0
-13 -15 0
-14 -15 0
13 14 15 0
-16 -17 0
-16 -18 0
-17 -18 0
16 17 18 0
-19 -20 0
-19 -21 0
-20 -21 0
19 20 21 0
-22 -23 0
-22 -24 0
-23 -24 0
22 23 24 0
-25 -26 0
-25 -27 0
-26 -27 0
25 26 27 0
-28 -29 0
-28 -30 0
-29 -30 0
28 29 30 0
-31 -32 0
-31 -33 0
-32 -33 0
31 32 33 0
-34 -35 0
-34 -36 0
-35 -36 0
34 35 36 0
-37 -38 0
-37 -39 0
-38 -39 0
37 38 39 0
-40 -41 0
-40 -42 0
-41 -42 0
40 41 42 0
-43 -44 0
-43 -45 0
-44 -45 0
43 44 45 0
-46 -47 0
-46 -48 0
-47 -48 0
46 47 48 0
-49 -50 0
-49 -51 0
-50 -51 0
49 50 51 0
-52 -53 0
-52 -54 0
-53 -54 0
52 53 54 0
-55 -56 0
-55 -57 0
-56 -57 0
55 56 57 0
-58 -59 0
-58 -60 0
-59 -60 0
58 59 60 0
-61 -62 0
-61 -63 0
-62 -63 0
61 62 63 0
-64 -65 0
-64 -66 0
-65 -66 0
64 65 66 0
-67 -68 0
-67 -69 0
-68 -69 0
67 68 69 0
-70 -71 0
-70 -72 0
-71 -72 0
70 71 72 0
-73 -74 0
-73 -75 0
-74 -75 0
73 74 75 0
-76 -77 0
-76 -78 0
-77 -78 0
76 77 78 0
-79 -80 0
-79 -81 0
-80 -81 0
79 80 81 0
-82 -83 0
-82 -84 0
-83 -84 0
82 83 84 0
-85 -86 0
-85 -87 0
-86 -87 0
85 86 87 0
-88 -89 0
-88 -90 0
-89 -90 0
88 89 90 0
-91 -92 0
-91 -93 0
-92 -93 0
91 92 93 0
-94 -95 0
-94 -96 0
-95 -96 0
94 95 96 0
-97 -98 0
-97 -99 0
-98 -99 0
97 98 99 0
-100 -101 0
-100 -102 0
-101 -102 0
100 101 102 0
-103 -104 0
-103 -105 0
-104 -105 0
103 104 105 0
-106 -107 0
-106 -108 0
-107 -108 0
106 107 108 0
-109 -110 0
-109 -111 0
-110 -111 0
109 110 111 0
-112 -113 0
-112 -114 0
-113 -114 0
112 113 114 0
-115 -116 0
-115 -117 0
-116 -117 0
115 116 117 0
-118 -119 0
-118 -120 0
-119 -120 0
118 119 120 0
-121 -122 0
-121 -123 0
-122 -123 0
121 122 123 0
-124 -125 0
-124 -126 0
-125 -126 0
124 125 126 0
-127 -128 0
-127 -129 0
-128 -129 0
127 128 129 0
-130 -131 0
-130 -132 0
-131 -132 0
130 131 132 0
-133 -134 0
-133 -135 0
-134 -135 0
133 134 135 0
-136 -137 0
-136 -138 0
-137 -138 0
136 137 138 0
-139 -140 0
-139 -141 0
-140 -141 0
139 140 141 0
-142 -143 0
-142 -144 0
-143 -144 0
142 143 144 0
-145 -146 0
-145 -147 0
-146 -147 0
145 146 147 0
-148 -149 0
-148 -150 0
-149 -150 0
148 149 150 0
-52 -1 0
-53 -2 0
-54 -3 0
-73 -1 0
-74 -2 0
-75 -3 0
-82 -1 0
-83 -2 0
-84 -3 0
-100 -1 0
-101 -2 0
-102 -3 0
-115 -1 0
-116 -2 0
-117 -3 0
-58 -4 0
-59 -5 0
-60 -6 0
-67 -4 0
-68 -5 0
-69 -6 0
-79 -4 0
-80 -5 0
-81 -6 0
-100 -4 0
-101 -5 0
-102 -6 0
-58 -7 0
-59 -8 0
-60 -9 0
-82 -7 0
-83 -8 0
-84 -9 0
-136 -7 0
-137 -8 0
-138 -9 0
-148 -7 0
-149 -8 0
-150 -9 0
-112 -10 0
-113 -11 0
-114 -12 0
-121 -10 0
-122 -11 0
-123 -12 0
-148 -10 0
-149 -11 0
-150 -12 0
-76 -13 0
-77 -14 0
-78 -15 0
-91 -13 0
-92 -14 0
-93 -15 0
-106 -13 0
-107 -14 0
-108 -15 0
-118 -13 0
-119 -14 0
-120 -15 0
-127 -13 0
-128 -14 0
-129 -15 0
-142 -13 0
-143 -14 0
-144 -15 0
-55 -16 0
-56 -17 0
-57 -18 0
-88 -16 0
-89 -17 0
-90 -18 0
-94 -16 0
-95 -17 0
-96 -18 0
-112 -16 0
-113 -17 0
-114 -18 0
-142 -16 0
-143 -17 0
-144 -18 0
-145 -16 0
-146 -17 0
-147 -18 0
-67 -19 0
-68 -20 0
-69 -21 0
-76 -19 0
-77 -20 0
-78 -21 0
-82 -19 0
-83 -20 0
-84 -21 0
-85 -19 0
-86 -20 0
-87 -21 0
-136 -19 0
-137 -20 0
-138 -21 0
-52 -22 0
-53 -23 0
-54 -24 0
-103 -22 0
-104 -23 0
-105 -24 0
-133 -22 0
-134 -23 0
-135 -24 0
-79 -25 0
-80 -26 0
-81 -27 0
-94 -25 0
-95 -26 0
-96 -27 0
-103 -25 0
-104 -26 0
-105 -27 0
-112 -25 0
-113 -26 0
-114 -27 0
-130 -25 0
-131 -26 0
-132 -27 0
-145 -25 0
-146 -26 0
-147 -27 0
-76 -28 0
-77 -29 0
-78 -30 0
-115 -28 0
-116 -29 0
-117 -30 0
-118 -28 0
-119 -29 0
-120 -30 0
-124 -28 0
-125 -29 0
-126 -30 0
-100 -31 0
-101 -32 0
-102 -33 0
-103 -31 0
-104 -32 0
-105 -33 0
-115 -31 0
-116 -32 0
-117 -33 0
-130 -31 0
-131 -32 0
-132 -33 0
-67 -34 0
-68 -35 0
-69 -36 0
-70 -34 0
-71 -35 0
-72 -36 0
-127 -34 0
-128 -35 0
-129 -36 0
-52 -37 0
-53 -38 0
-54 -39 0
-58 -37 0
-59 -38 0
-60 -39 0
-61 -37 0
-62 -38 0
-63 -39 0
-103 -37 0
-104 -38 0
-105 -39 0
-112 -37 0
-113 -38 0
-114 -39 0
-133 -37 0
-134 -38 0
-135 -39 0
-64 -40 0
-65 -41 0
-66 -42 0
-100 -40 0
-101 -41 0
-102 -42 0
-55 -43 0
-56 -44 0
-57 -45 0
-67 -43 0
-68 -44 0
-69 -45 0
-70 -43 0
-71 -44 0
-72 -45 0
-85 -43 0
-86 -44 0
-87 -45 0
-127 -43 0
-128 -44 0
-129 -45 0
-145 -43 0
-146 -44 0
-147 -45 0
-70 -46 0
-71 -47 0
-72 -48 0
-76 -46 0
-77 -47 0
-78 -48 0
-79 -46 0
-80 -47 0
-81 -48 0
-85 -46 0
-86 -47 0
-87 -48 0
-124 -46 0
-125 -47 0
-126 -48 0
-142 -46 0
-143 -47 0
-144 -48 0
-94 -49 0
-95 -50 0
-96 -51 0
-109 -49 0
-110 -50 0
-111 -51 0
-142 -49 0
-143 -50 0
-144 -51 0
-145 -49 0
-146 -50 0
-147 -51 0
-103 -52 0
-104 -53 0
-105 -54 0
-139 -52 0
-140 -53 0
-141 -54 0
-127 -55 0
-128 -56 0
-129 -57 0
-103 -58 0
-104 -59 0
-105 -60 0
-106 -58 0
-107 -59 0
-108 -60 0
-118 -58 0
-119 -59 0
-120 -60 0
-118 -61 0
-119 -62 0
-120 -63 0
-121 -61 0
-122 -62 0
-123 -63 0
-127 -61 0
-128 -62 0
-129 -63 0
-145 -61 0
-146 -62 0
-147 -63 0
-106 -64 0
-107 -65 0
-108 -66 0
-136 -64 0
-137 -65 0
-138 -66 0
-139 -64 0
-140 -65 0
-141 -66 0
-109 -67 0
-110 -68 0
-111 -69 0
-133 -67 0
-134 -68 0
-135 -69 0
-139 -67 0
-140 -68 0
-141 -69 0
-142 -67 0
-143 -68 0
-144 -69 0
-145 -70 0
-146 -71 0
-147 -72 0
-118 -73 0
-119 -74 0
-120 -75 0
-148 -73 0
-149 -74 0
-150 -75 0
-121 -76 0
-122 -77 0
-123 -78 0
-133 -76 0
-134 -77 0
-135 -78 0
-106 -79 0
-107 -80 0
-108 -81 0
-124 -79 0
-125 -80 0
-126 -81 0
-127 -79 0
-128 -80 0
-129 -81 0
-148 -79 0
-149 -80 0
-150 -81 0
-118 -82 0
-119 -83 0
-120 -84 0
-148 -82 0
-149 -83 0
-150 -84 0
-106 -85 0
-107 -86 0
-108 -87 0
-136 -85 0
-137 -86 0
-138 -87 0
-139 -85 0
-140 -86 0
-141 -87 0
-145 -85 0
-146 -86 0
-147 -87 0
-109 -88 0
-110 -89 0
-111 -90 0
-127 -88 0
-128 -89 0
-129 -90 0
-115 -91 0
-116 -92 0
-117 -93 0
-109 -94 0
-110 -95 0
-111 -96 0
-145 -97 0
-146 -98 0
-147 -99 0
-142 -100 0
-143 -101 0
-144 -102 0
